[VALIDATOR STDOUT]
Checking plan: /home/jfan5/Safety-gen/runs/benchmark/optic/delivery_20260201_172908/delivery/optic_results/delivery_size20_packages1_seed20001.plan
Plan executed successfully - checking goal
Plan valid
Final value: 123 

Successful plans:
Value: 123
 /home/jfan5/Safety-gen/runs/benchmark/optic/delivery_20260201_172908/delivery/optic_results/delivery_size20_packages1_seed20001.plan 123
